p cnf 7230 15
2994 2995 0
2322 -2995 0
-2322 -2994 0
2992 2993 0
2320 -2993 0
-2320 -2992 0
2990 2991 0
2318 -2991 0
-2318 -2990 0
2988 2989 0
2314 -2989 0
-2314 -2988 0
2986 2987 0
2312 -2987 0
-2312 -2986 0
